p cnf 19 64
-1 -3 -4 -5 -6 0
5 14 16 -19 0
-1 2 0
1 7 -3 0
-1 -7 3 0
1 8 0
-1 4 0
1 -5 0
1 9 -6 0
-1 -9 6 0
2 10 -3 0
-2 -10 3 0
2 11 0
2 -4 0
2 -5 0
2 -6 0
3 12 0
3 13 -4 0
-3 -13 4 0
3 14 -5 0
-3 -14 5 0
3 -6 0
-15 4 0
-16 5 0
-17 6 0
4 -5 0
4 18 -6 0
-4 -18 6 0
5 19 -6 0
-5 -19 6 0
-10 7 0
-11 8 0
7 12 -8 0
-7 -12 8 0
7 13 0
-7 -14 0
7 -9 0
8 15 0
-8 -16 0
8 17 -9 0
-8 -17 9 0
-18 9 0
19 -9 0
10 12 -11 0
-10 -12 11 0
-10 -13 0
-10 -14 0
-11 -15 0
-11 -16 0
-11 -17 0
12 15 -13 0
-12 -15 13 0
12 16 -14 0
-12 -16 14 0
-12 -17 0
13 -14 0
-13 -18 0
-14 -19 0
15 -16 0
15 18 -17 0
-15 -18 17 0
16 19 -17 0
-16 -19 17 0
19 -18 0
